NAME: tsp20_12
COMMENT: 20-tsp problem (Padberg/Rinaldi)
TYPE: TSP
DIMENSION: 20
EDGE_WEIGHT_TYPE : EUC_2D
NODE_COORD_SECTION
1 20 1
2 23 29
3 1 18
4 4 14
5 31 38
6 12 1
7 27 35
8 31 15
9 38 2
10 17 5
11 6 24
12 30 29
13 0 31
14 25 12
15 11 37
16 33 27
17 40 13
18 3 32
19 34 14
20 27 18
